
Gurobi 13.0.2 (win64) logging started Thu Jul 23 14:31:43 2026

Set parameter LogFile to value "E:\codes\ExactEBRP\results\gf_gurobi_performance_recovery_round29\runs\stage1__tight_T_seed3101__c3_replica__300s\external\native_logs\R.0.0.1.0.0.1.1.1.1.0_lp.gurobi.log"
Gurobi Optimizer version 13.0.2 build v13.0.2rc1 (win64 - Windows 10.0 (19045.2))

CPU model: 12th Gen Intel(R) Core(TM) i7-12700KF, instruction set [SSE2|AVX|AVX2]
Thread count: 12 physical cores, 20 logical processors, using up to 1 threads

Non-default parameters:
TimeLimit  8.8571428700000013e+01
MIPGap  0
MIPGapAbs  0
LogToConsole  0
Threads  1

Optimize a model with 11939 rows, 3384 columns and 67420 nonzeros (Min)
Model fingerprint: 0xe86c7217
Model has 21 linear objective coefficients
Coefficient statistics:
  Matrix range     [7e-03, 2e+04]
  Objective range  [7e-03, 1e+00]
  Bounds range     [2e-02, 3e+02]
  RHS range        [2e-02, 5e+04]

Presolve removed 1107 rows and 105 columns
Presolve time: 0.03s
Presolved: 10832 rows, 3438 columns, 62329 nonzeros

Iteration    Objective       Primal Inf.    Dual Inf.      Time
       0    1.6548762e-02   4.026445e+02   0.000000e+00      0s

Extra simplex iterations after uncrush: 14
    3751    1.7670591e-02   0.000000e+00   0.000000e+00      0s

Solved in 3751 iterations and 0.24 seconds (0.77 work units)
Optimal objective  1.767059133e-02

User-callback calls 3901, time in user-callback 0.00 sec
